!UHF 6-31G Opt

%geom
	scan
		B 0 1 = 0.9, 1, 10
		B 0 2 = 0.9, 1, 10
	end
	Constraints
		{ A 1 0 2 135.0 C }
	end
end
*int 0 2
H 0 0 0 0.0 0.000 0.0
H 1 0 0 0.9 0.000 0.0
H 1 2 0 0.9 135.0 0.0
*