!UHF 6-31G Opt

%geom
	scan
		B 0 1 = 0.60, 2.60, 11
		B 0 2 = 0.60, 2.60, 11
	end
	Constraints
		{ A 1 0 2 180.0 C }
	end
end
*int 0 2
H 0 0 0 0.0 0.000 0.0
H 1 0 0 0.6 0.000 0.0
H 1 2 0 0.6 180.0 0.0
*