!UHF 6-31G Opt

%geom
	scan
		B 0 1 = 0.80, 1.4, 10
		B 0 2 = 0.80, 1.4, 10
	end
	Constraints
		{ A 1 0 2 90.0 C }
	end
end
*int 0 2
H 0 0 0 0.0 0.000 0.0
H 1 0 0 0.8 0.000 0.0
H 1 2 0 0.8 90.0 0.0
*