!UHF 6-31G Opt

%geom
	scan
		B 0 1 = 0.875, 0.975, 10
		B 0 2 = 0.875, 0.975, 10
	end
	Constraints
		{ A 1 0 2 180.0 C }
	end
end
*int 0 2
H 0 0 0 0.0 0.000 0.0
H 1 0 0 0.875 0.000 0.0
H 1 2 0 0.875 180.0 0.0
*